60
1 0 28
2 0 24
2 1 81
3 0 52
3 1 62
3 2 69
4 0 5
4 1 32
4 2 6
4 3 92
5 0 57
5 1 71
5 2 32
5 3 28
5 4 13
6 0 46
6 1 30
6 2 69
6 3 77
6 4 92
6 5 5
7 0 13
7 1 92
7 2 58
7 3 65
7 4 12
7 5 97
7 6 70
8 0 53
8 1 26
8 2 43
8 3 57
8 4 81
8 5 66
8 6 3
8 7 82
9 0 70
9 1 61
9 2 17
9 3 87
9 4 1
9 5 78
9 6 64
9 7 38
9 8 38
10 0 4
10 1 63
10 2 30
10 3 61
10 4 41
10 5 33
10 6 90
10 7 37
10 8 90
10 9 63
11 0 96
11 1 18
11 2 24
11 3 78
11 4 80
11 5 21
11 6 68
11 7 3
11 8 100
11 9 61
11 10 39
12 0 61
12 1 93
12 2 21
12 3 23
12 4 42
12 5 47
12 6 76
12 7 81
12 8 50
12 9 48
12 10 31
12 11 11
13 0 10
13 1 93
13 2 8
13 3 14
13 4 79
13 5 85
13 6 16
13 7 45
13 8 6
13 9 27
13 10 79
13 11 31
13 12 33
14 0 6
14 1 100
14 2 98
14 3 27
14 4 21
14 5 6
14 6 47
14 7 91
14 8 100
14 9 76
14 10 53
14 11 90
14 12 5
14 13 72
15 0 85
15 1 89
15 2 23
15 3 2
15 4 73
15 5 95
15 6 6
15 7 1
15 8 79
15 9 42
15 10 71
15 11 12
15 12 21
15 13 73
15 14 16
16 0 79
16 1 80
16 2 88
16 3 93
16 4 14
16 5 91
16 6 81
16 7 26
16 8 82
16 9 77
16 10 85
16 11 9
16 12 14
16 13 97
16 14 76
16 15 79
17 0 56
17 1 11
17 2 32
17 3 69
17 4 6
17 5 73
17 6 35
17 7 95
17 8 93
17 9 22
17 10 54
17 11 6
17 12 5
17 13 25
17 14 68
17 15 23
17 16 71
18 0 77
18 1 96
18 2 38
18 3 48
18 4 94
18 5 60
18 6 53
18 7 80
18 8 27
18 9 84
18 10 65
18 11 17
18 12 85
18 13 13
18 14 55
18 15 13
18 16 60
18 17 4
19 0 10
19 1 52
19 2 87
19 3 20
19 4 92
19 5 55
19 6 70
19 7 38
19 8 56
19 9 82
19 10 69
19 11 34
19 12 43
19 13 21
19 14 26
19 15 24
19 16 32
19 17 33
19 18 74
20 0 69
20 1 8
20 2 97
20 3 60
20 4 69
20 5 91
20 6 67
20 7 72
20 8 2
20 9 26
20 10 39
20 11 50
20 12 90
20 13 34
20 14 95
20 15 27
20 16 100
20 17 69
20 18 64
20 19 27
21 0 4
21 1 32
21 2 17
21 3 14
21 4 51
21 5 51
21 6 100
21 7 70
21 8 47
21 9 94
21 10 43
21 11 50
21 12 24
21 13 14
21 14 37
21 15 34
21 16 50
21 17 23
21 18 34
21 19 82
21 20 21
22 0 32
22 1 28
22 2 60
22 3 26
22 4 31
22 5 25
22 6 84
22 7 74
22 8 80
22 9 92
22 10 18
22 11 33
22 12 36
22 13 73
22 14 6
22 15 21
22 16 37
22 17 73
22 18 33
22 19 37
22 20 19
22 21 85
23 0 42
23 1 32
23 2 45
23 3 92
23 4 49
23 5 54
23 6 59
23 7 67
23 8 46
23 9 19
23 10 100
23 11 64
23 12 67
23 13 93
23 14 33
23 15 59
23 16 65
23 17 83
23 18 4
23 19 3
23 20 26
23 21 74
23 22 96
24 0 82
24 1 20
24 2 59
24 3 52
24 4 92
24 5 58
24 6 55
24 7 14
24 8 83
24 9 6
24 10 91
24 11 68
24 12 41
24 13 84
24 14 23
24 15 95
24 16 85
24 17 42
24 18 2
24 19 86
24 20 13
24 21 91
24 22 4
24 23 59
25 0 31
25 1 35
25 2 2
25 3 83
25 4 37
25 5 38
25 6 32
25 7 8
25 8 46
25 9 98
25 10 87
25 11 43
25 12 83
25 13 49
25 14 38
25 15 41
25 16 77
25 17 77
25 18 74
25 19 85
25 20 33
25 21 41
25 22 97
25 23 65
25 24 65
26 0 38
26 1 28
26 2 18
26 3 11
26 4 31
26 5 95
26 6 50
26 7 83
26 8 61
26 9 27
26 10 64
26 11 2
26 12 79
26 13 58
26 14 81
26 15 18
26 16 94
26 17 21
26 18 100
26 19 40
26 20 12
26 21 96
26 22 57
26 23 10
26 24 10
26 25 23
27 0 72
27 1 86
27 2 82
27 3 11
27 4 84
27 5 36
27 6 29
27 7 94
27 8 30
27 9 57
27 10 10
27 11 19
27 12 11
27 13 56
27 14 45
27 15 68
27 16 38
27 17 68
27 18 60
27 19 40
27 20 71
27 21 99
27 22 7
27 23 64
27 24 91
27 25 16
27 26 95
28 0 96
28 1 53
28 2 17
28 3 19
28 4 39
28 5 21
28 6 67
28 7 71
28 8 80
28 9 86
28 10 68
28 11 84
28 12 31
28 13 11
28 14 2
28 15 11
28 16 33
28 17 56
28 18 78
28 19 72
28 20 38
28 21 82
28 22 54
28 23 10
28 24 95
28 25 26
28 26 28
28 27 31
29 0 93
29 1 6
29 2 8
29 3 29
29 4 57
29 5 97
29 6 19
29 7 18
29 8 71
29 9 81
29 10 95
29 11 18
29 12 92
29 13 68
29 14 65
29 15 79
29 16 89
29 17 36
29 18 41
29 19 23
29 20 89
29 21 43
29 22 58
29 23 47
29 24 47
29 25 1
29 26 21
29 27 26
29 28 56
30 0 26
30 1 68
30 2 88
30 3 57
30 4 95
30 5 55
30 6 70
30 7 38
30 8 73
30 9 10
30 10 63
30 11 10
30 12 96
30 13 20
30 14 14
30 15 2
30 16 29
30 17 50
30 18 43
30 19 33
30 20 17
30 21 3
30 22 77
30 23 26
30 24 17
30 25 76
30 26 36
30 27 88
30 28 65
30 29 60
31 0 5
31 1 67
31 2 23
31 3 2
31 4 72
31 5 59
31 6 14
31 7 24
31 8 34
31 9 31
31 10 23
31 11 52
31 12 91
31 13 75
31 14 49
31 15 23
31 16 75
31 17 15
31 18 7
31 19 62
31 20 95
31 21 29
31 22 36
31 23 41
31 24 88
31 25 61
31 26 51
31 27 70
31 28 8
31 29 31
31 30 54
32 0 85
32 1 92
32 2 72
32 3 81
32 4 21
32 5 90
32 6 52
32 7 57
32 8 1
32 9 46
32 10 50
32 11 87
32 12 60
32 13 61
32 14 9
32 15 100
32 16 100
32 17 81
32 18 85
32 19 28
32 20 43
32 21 89
32 22 40
32 23 87
32 24 23
32 25 99
32 26 78
32 27 87
32 28 34
32 29 73
32 30 12
32 31 93
33 0 23
33 1 14
33 2 6
33 3 18
33 4 17
33 5 100
33 6 28
33 7 4
33 8 84
33 9 74
33 10 20
33 11 43
33 12 99
33 13 97
33 14 66
33 15 26
33 16 55
33 17 19
33 18 100
33 19 38
33 20 30
33 21 50
33 22 11
33 23 20
33 24 23
33 25 14
33 26 18
33 27 75
33 28 99
33 29 26
33 30 25
33 31 99
33 32 5
34 0 26
34 1 81
34 2 46
34 3 68
34 4 56
34 5 9
34 6 60
34 7 72
34 8 74
34 9 74
34 10 48
34 11 70
34 12 24
34 13 1
34 14 68
34 15 92
34 16 22
34 17 73
34 18 49
34 19 42
34 20 18
34 21 62
34 22 78
34 23 12
34 24 48
34 25 74
34 26 13
34 27 33
34 28 84
34 29 11
34 30 17
34 31 55
34 32 48
34 33 86
35 0 11
35 1 36
35 2 43
35 3 38
35 4 91
35 5 55
35 6 25
35 7 35
35 8 78
35 9 2
35 10 12
35 11 63
35 12 61
35 13 4
35 14 8
35 15 35
35 16 77
35 17 79
35 18 87
35 19 80
35 20 40
35 21 47
35 22 59
35 23 76
35 24 93
35 25 25
35 26 31
35 27 50
35 28 63
35 29 82
35 30 9
35 31 69
35 32 34
35 33 51
35 34 24
36 0 68
36 1 73
36 2 5
36 3 76
36 4 13
36 5 72
36 6 43
36 7 16
36 8 85
36 9 85
36 10 64
36 11 24
36 12 27
36 13 84
36 14 3
36 15 45
36 16 9
36 17 60
36 18 64
36 19 95
36 20 85
36 21 33
36 22 79
36 23 53
36 24 50
36 25 62
36 26 71
36 27 83
36 28 30
36 29 53
36 30 8
36 31 74
36 32 54
36 33 25
36 34 67
36 35 84
37 0 94
37 1 67
37 2 49
37 3 17
37 4 75
37 5 98
37 6 15
37 7 85
37 8 84
37 9 18
37 10 35
37 11 17
37 12 38
37 13 8
37 14 66
37 15 32
37 16 83
37 17 27
37 18 2
37 19 84
37 20 40
37 21 92
37 22 71
37 23 35
37 24 16
37 25 62
37 26 51
37 27 26
37 28 44
37 29 52
37 30 52
37 31 53
37 32 28
37 33 44
37 34 79
37 35 61
37 36 4
38 0 82
38 1 63
38 2 13
38 3 32
38 4 53
38 5 43
38 6 3
38 7 94
38 8 11
38 9 15
38 10 13
38 11 64
38 12 76
38 13 100
38 14 45
38 15 58
38 16 22
38 17 90
38 18 58
38 19 5
38 20 51
38 21 69
38 22 9
38 23 67
38 24 88
38 25 22
38 26 78
38 27 24
38 28 65
38 29 79
38 30 2
38 31 1
38 32 80
38 33 64
38 34 82
38 35 77
38 36 33
38 37 33
39 0 20
39 1 34
39 2 94
39 3 23
39 4 92
39 5 22
39 6 37
39 7 60
39 8 80
39 9 45
39 10 56
39 11 82
39 12 13
39 13 1
39 14 51
39 15 84
39 16 89
39 17 28
39 18 35
39 19 85
39 20 81
39 21 38
39 22 15
39 23 78
39 24 39
39 25 40
39 26 38
39 27 18
39 28 53
39 29 94
39 30 8
39 31 41
39 32 45
39 33 32
39 34 20
39 35 43
39 36 73
39 37 46
39 38 60
40 0 49
40 1 5
40 2 30
40 3 68
40 4 40
40 5 73
40 6 24
40 7 67
40 8 42
40 9 10
40 10 95
40 11 1
40 12 86
40 13 57
40 14 61
40 15 42
40 16 78
40 17 60
40 18 31
40 19 46
40 20 56
40 21 20
40 22 18
40 23 76
40 24 20
40 25 48
40 26 73
40 27 30
40 28 58
40 29 50
40 30 8
40 31 28
40 32 100
40 33 43
40 34 28
40 35 48
40 36 82
40 37 61
40 38 98
40 39 26
41 0 3
41 1 33
41 2 92
41 3 46
41 4 94
41 5 10
41 6 18
41 7 100
41 8 40
41 9 84
41 10 12
41 11 79
41 12 35
41 13 46
41 14 37
41 15 26
41 16 37
41 17 43
41 18 40
41 19 86
41 20 72
41 21 49
41 22 52
41 23 98
41 24 3
41 25 64
41 26 24
41 27 40
41 28 49
41 29 93
41 30 45
41 31 13
41 32 35
41 33 81
41 34 85
41 35 18
41 36 95
41 37 96
41 38 48
41 39 86
41 40 82
42 0 95
42 1 40
42 2 34
42 3 25
42 4 7
42 5 79
42 6 76
42 7 55
42 8 20
42 9 10
42 10 7
42 11 100
42 12 67
42 13 90
42 14 43
42 15 98
42 16 29
42 17 68
42 18 83
42 19 91
42 20 14
42 21 75
42 22 14
42 23 98
42 24 73
42 25 81
42 26 95
42 27 84
42 28 65
42 29 4
42 30 83
42 31 63
42 32 90
42 33 81
42 34 78
42 35 2
42 36 30
42 37 8
42 38 14
42 39 32
42 40 89
42 41 38
43 0 16
43 1 64
43 2 13
43 3 85
43 4 91
43 5 63
43 6 30
43 7 64
43 8 52
43 9 56
43 10 45
43 11 75
43 12 56
43 13 43
43 14 71
43 15 9
43 16 27
43 17 53
43 18 98
43 19 37
43 20 99
43 21 76
43 22 15
43 23 98
43 24 80
43 25 37
43 26 38
43 27 6
43 28 41
43 29 7
43 30 23
43 31 52
43 32 74
43 33 73
43 34 52
43 35 50
43 36 67
43 37 6
43 38 29
43 39 58
43 40 98
43 41 85
43 42 18
44 0 99
44 1 48
44 2 94
44 3 17
44 4 19
44 5 75
44 6 81
44 7 50
44 8 91
44 9 10
44 10 42
44 11 7
44 12 46
44 13 56
44 14 88
44 15 85
44 16 74
44 17 9
44 18 90
44 19 93
44 20 45
44 21 28
44 22 26
44 23 40
44 24 31
44 25 33
44 26 53
44 27 97
44 28 36
44 29 89
44 30 100
44 31 20
44 32 62
44 33 18
44 34 47
44 35 75
44 36 66
44 37 52
44 38 29
44 39 90
44 40 89
44 41 100
44 42 95
44 43 36
45 0 60
45 1 13
45 2 88
45 3 99
45 4 14
45 5 60
45 6 57
45 7 16
45 8 60
45 9 44
45 10 93
45 11 68
45 12 3
45 13 27
45 14 46
45 15 61
45 16 6
45 17 52
45 18 96
45 19 31
45 20 29
45 21 62
45 22 54
45 23 70
45 24 7
45 25 65
45 26 27
45 27 42
45 28 29
45 29 98
45 30 74
45 31 42
45 32 47
45 33 82
45 34 40
45 35 24
45 36 23
45 37 73
45 38 36
45 39 86
45 40 85
45 41 52
45 42 9
45 43 3
45 44 59
46 0 7
46 1 23
46 2 38
46 3 94
46 4 10
46 5 28
46 6 70
46 7 5
46 8 74
46 9 16
46 10 30
46 11 84
46 12 52
46 13 63
46 14 24
46 15 71
46 16 24
46 17 19
46 18 79
46 19 74
46 20 65
46 21 3
46 22 60
46 23 87
46 24 99
46 25 99
46 26 25
46 27 44
46 28 85
46 29 67
46 30 27
46 31 99
46 32 89
46 33 17
46 34 78
46 35 33
46 36 27
46 37 9
46 38 27
46 39 24
46 40 95
46 41 76
46 42 27
46 43 22
46 44 28
46 45 80
47 0 92
47 1 29
47 2 27
47 3 54
47 4 56
47 5 62
47 6 71
47 7 87
47 8 2
47 9 65
47 10 2
47 11 55
47 12 16
47 13 84
47 14 24
47 15 4
47 16 78
47 17 22
47 18 89
47 19 43
47 20 7
47 21 54
47 22 45
47 23 92
47 24 11
47 25 44
47 26 51
47 27 5
47 28 18
47 29 16
47 30 20
47 31 61
47 32 78
47 33 60
47 34 24
47 35 82
47 36 75
47 37 76
47 38 61
47 39 39
47 40 83
47 41 84
47 42 2
47 43 36
47 44 48
47 45 69
47 46 29
48 0 97
48 1 91
48 2 18
48 3 63
48 4 90
48 5 64
48 6 76
48 7 27
48 8 67
48 9 89
48 10 34
48 11 91
48 12 96
48 13 82
48 14 21
48 15 13
48 16 19
48 17 30
48 18 59
48 19 43
48 20 74
48 21 71
48 22 11
48 23 86
48 24 37
48 25 11
48 26 28
48 27 15
48 28 94
48 29 52
48 30 68
48 31 92
48 32 47
48 33 40
48 34 57
48 35 46
48 36 11
48 37 43
48 38 97
48 39 97
48 40 48
48 41 24
48 42 68
48 43 31
48 44 53
48 45 65
48 46 43
48 47 85
49 0 95
49 1 55
49 2 43
49 3 65
49 4 63
49 5 58
49 6 90
49 7 27
49 8 81
49 9 15
49 10 31
49 11 92
49 12 84
49 13 49
49 14 50
49 15 66
49 16 77
49 17 74
49 18 77
49 19 97
49 20 13
49 21 34
49 22 86
49 23 79
49 24 67
49 25 18
49 26 10
49 27 95
49 28 84
49 29 20
49 30 33
49 31 53
49 32 39
49 33 59
49 34 46
49 35 61
49 36 29
49 37 63
49 38 50
49 39 37
49 40 80
49 41 80
49 42 64
49 43 63
49 44 62
49 45 81
49 46 68
49 47 14
49 48 15
50 0 63
50 1 82
50 2 36
50 3 48
50 4 64
50 5 71
50 6 41
50 7 59
50 8 50
50 9 10
50 10 51
50 11 88
50 12 43
50 13 73
50 14 9
50 15 8
50 16 85
50 17 11
50 18 33
50 19 92
50 20 71
50 21 34
50 22 82
50 23 46
50 24 92
50 25 27
50 26 72
50 27 70
50 28 63
50 29 55
50 30 45
50 31 93
50 32 38
50 33 24
50 34 83
50 35 4
50 36 36
50 37 29
50 38 31
50 39 59
50 40 22
50 41 94
50 42 56
50 43 49
50 44 20
50 45 69
50 46 66
50 47 52
50 48 58
50 49 75
51 0 58
51 1 7
51 2 65
51 3 78
51 4 82
51 5 84
51 6 76
51 7 43
51 8 25
51 9 30
51 10 11
51 11 13
51 12 58
51 13 29
51 14 26
51 15 1
51 16 6
51 17 97
51 18 71
51 19 84
51 20 24
51 21 90
51 22 95
51 23 50
51 24 97
51 25 24
51 26 65
51 27 41
51 28 91
51 29 9
51 30 21
51 31 67
51 32 25
51 33 48
51 34 64
51 35 10
51 36 47
51 37 80
51 38 39
51 39 42
51 40 22
51 41 32
51 42 94
51 43 4
51 44 77
51 45 24
51 46 97
51 47 41
51 48 52
51 49 57
51 50 49
52 0 86
52 1 56
52 2 52
52 3 28
52 4 27
52 5 29
52 6 36
52 7 59
52 8 15
52 9 55
52 10 89
52 11 82
52 12 90
52 13 80
52 14 2
52 15 67
52 16 32
52 17 25
52 18 97
52 19 6
52 20 57
52 21 7
52 22 28
52 23 67
52 24 38
52 25 100
52 26 51
52 27 4
52 28 99
52 29 97
52 30 26
52 31 47
52 32 12
52 33 68
52 34 15
52 35 26
52 36 14
52 37 15
52 38 61
52 39 91
52 40 9
52 41 64
52 42 74
52 43 45
52 44 21
52 45 59
52 46 58
52 47 92
52 48 14
52 49 37
52 50 60
52 51 67
53 0 14
53 1 2
53 2 20
53 3 15
53 4 69
53 5 32
53 6 43
53 7 17
53 8 43
53 9 78
53 10 41
53 11 83
53 12 51
53 13 46
53 14 8
53 15 72
53 16 44
53 17 70
53 18 25
53 19 3
53 20 32
53 21 8
53 22 98
53 23 61
53 24 92
53 25 38
53 26 100
53 27 16
53 28 87
53 29 19
53 30 50
53 31 12
53 32 20
53 33 48
53 34 51
53 35 94
53 36 79
53 37 28
53 38 87
53 39 74
53 40 47
53 41 40
53 42 28
53 43 55
53 44 95
53 45 63
53 46 11
53 47 74
53 48 73
53 49 99
53 50 86
53 51 24
53 52 66
54 0 95
54 1 48
54 2 61
54 3 90
54 4 66
54 5 97
54 6 17
54 7 29
54 8 66
54 9 93
54 10 76
54 11 56
54 12 48
54 13 96
54 14 70
54 15 73
54 16 38
54 17 13
54 18 12
54 19 79
54 20 73
54 21 95
54 22 81
54 23 32
54 24 18
54 25 44
54 26 4
54 27 78
54 28 39
54 29 32
54 30 17
54 31 62
54 32 97
54 33 45
54 34 1
54 35 41
54 36 10
54 37 91
54 38 16
54 39 60
54 40 65
54 41 52
54 42 76
54 43 65
54 44 9
54 45 52
54 46 58
54 47 71
54 48 39
54 49 86
54 50 14
54 51 96
54 52 56
54 53 19
55 0 41
55 1 37
55 2 76
55 3 60
55 4 35
55 5 43
55 6 99
55 7 70
55 8 12
55 9 29
55 10 87
55 11 43
55 12 100
55 13 3
55 14 94
55 15 92
55 16 11
55 17 30
55 18 44
55 19 16
55 20 55
55 21 47
55 22 78
55 23 32
55 24 68
55 25 94
55 26 85
55 27 93
55 28 47
55 29 30
55 30 94
55 31 37
55 32 17
55 33 56
55 34 10
55 35 33
55 36 87
55 37 55
55 38 1
55 39 13
55 40 56
55 41 22
55 42 81
55 43 13
55 44 83
55 45 55
55 46 39
55 47 62
55 48 26
55 49 8
55 50 8
55 51 92
55 52 18
55 53 46
55 54 86
56 0 48
56 1 42
56 2 56
56 3 40
56 4 38
56 5 3
56 6 83
56 7 60
56 8 39
56 9 33
56 10 6
56 11 42
56 12 51
56 13 64
56 14 88
56 15 20
56 16 75
56 17 46
56 18 39
56 19 78
56 20 39
56 21 19
56 22 92
56 23 6
56 24 15
56 25 48
56 26 77
56 27 80
56 28 95
56 29 79
56 30 41
56 31 87
56 32 11
56 33 92
56 34 58
56 35 24
56 36 31
56 37 39
56 38 12
56 39 37
56 40 55
56 41 98
56 42 59
56 43 82
56 44 3
56 45 97
56 46 98
56 47 24
56 48 57
56 49 73
56 50 6
56 51 2
56 52 3
56 53 64
56 54 11
56 55 35
57 0 99
57 1 65
57 2 24
57 3 44
57 4 40
57 5 96
57 6 39
57 7 99
57 8 16
57 9 48
57 10 75
57 11 48
57 12 77
57 13 19
57 14 26
57 15 55
57 16 51
57 17 41
57 18 36
57 19 71
57 20 75
57 21 83
57 22 15
57 23 17
57 24 44
57 25 63
57 26 69
57 27 40
57 28 83
57 29 100
57 30 3
57 31 85
57 32 91
57 33 11
57 34 26
57 35 80
57 36 29
57 37 13
57 38 61
57 39 47
57 40 31
57 41 92
57 42 46
57 43 62
57 44 70
57 45 53
57 46 72
57 47 38
57 48 13
57 49 60
57 50 95
57 51 18
57 52 37
57 53 24
57 54 28
57 55 79
57 56 91
58 0 14
58 1 85
58 2 86
58 3 35
58 4 76
58 5 44
58 6 74
58 7 87
58 8 5
58 9 44
58 10 13
58 11 46
58 12 4
58 13 39
58 14 100
58 15 93
58 16 1
58 17 70
58 18 89
58 19 80
58 20 40
58 21 29
58 22 37
58 23 44
58 24 55
58 25 24
58 26 45
58 27 32
58 28 74
58 29 80
58 30 3
58 31 12
58 32 42
58 33 14
58 34 80
58 35 91
58 36 49
58 37 86
58 38 24
58 39 91
58 40 91
58 41 16
58 42 47
58 43 44
58 44 8
58 45 1
58 46 12
58 47 97
58 48 87
58 49 91
58 50 69
58 51 46
58 52 7
58 53 94
58 54 77
58 55 48
58 56 73
58 57 31
59 0 24
59 1 72
59 2 70
59 3 58
59 4 41
59 5 76
59 6 17
59 7 7
59 8 47
59 9 44
59 10 26
59 11 47
59 12 98
59 13 9
59 14 78
59 15 42
59 16 6
59 17 40
59 18 76
59 19 65
59 20 67
59 21 82
59 22 40
59 23 89
59 24 99
59 25 65
59 26 48
59 27 77
59 28 93
59 29 29
59 30 48
59 31 34
59 32 19
59 33 24
59 34 83
59 35 82
59 36 41
59 37 96
59 38 7
59 39 99
59 40 40
59 41 45
59 42 100
59 43 1
59 44 38
59 45 36
59 46 83
59 47 80
59 48 80
59 49 99
59 50 5
59 51 26
59 52 13
59 53 28
59 54 65
59 55 75
59 56 74
59 57 86
59 58 68
